20
1 0 13
2 0 3
2 1 2
3 0 5
3 1 4
3 2 3
4 0 12
4 1 6
4 2 8
4 3 7
5 0 5
5 1 7
5 2 13
5 3 7
5 4 5
6 0 5
6 1 12
6 2 13
6 3 1
6 4 6
6 5 9
7 0 12
7 1 10
7 2 10
7 3 8
7 4 2
7 5 5
7 6 11
8 0 3
8 1 4
8 2 10
8 3 5
8 4 8
8 5 9
8 6 9
8 7 7
9 0 9
9 1 4
9 2 8
9 3 11
9 4 9
9 5 11
9 6 6
9 7 3
9 8 3
10 0 12
10 1 8
10 2 12
10 3 11
10 4 4
10 5 10
10 6 4
10 7 12
10 8 7
10 9 4
11 0 11
11 1 3
11 2 11
11 3 11
11 4 8
11 5 5
11 6 1
11 7 11
11 8 5
11 9 5
11 10 3
12 0 3
12 1 7
12 2 6
12 3 1
12 4 4
12 5 12
12 6 10
12 7 9
12 8 5
12 9 12
12 10 8
12 11 10
13 0 2
13 1 5
13 2 7
13 3 12
13 4 9
13 5 4
13 6 3
13 7 5
13 8 7
13 9 6
13 10 10
13 11 5
13 12 13
14 0 1
14 1 6
14 2 6
14 3 12
14 4 10
14 5 11
14 6 11
14 7 8
14 8 13
14 9 9
14 10 10
14 11 5
14 12 10
14 13 9
15 0 5
15 1 9
15 2 1
15 3 13
15 4 4
15 5 2
15 6 11
15 7 13
15 8 5
15 9 11
15 10 1
15 11 7
15 12 13
15 13 3
15 14 12
16 0 11
16 1 5
16 2 8
16 3 2
16 4 11
16 5 10
16 6 12
16 7 9
16 8 8
16 9 7
16 10 5
16 11 10
16 12 13
16 13 8
16 14 4
16 15 11
17 0 5
17 1 9
17 2 1
17 3 2
17 4 4
17 5 5
17 6 2
17 7 4
17 8 2
17 9 2
17 10 2
17 11 3
17 12 1
17 13 6
17 14 4
17 15 11
17 16 3
18 0 1
18 1 10
18 2 2
18 3 10
18 4 13
18 5 5
18 6 12
18 7 3
18 8 4
18 9 9
18 10 6
18 11 1
18 12 3
18 13 9
18 14 9
18 15 8
18 16 4
18 17 11
19 0 11
19 1 10
19 2 11
19 3 13
19 4 12
19 5 6
19 6 13
19 7 10
19 8 6
19 9 12
19 10 9
19 11 8
19 12 2
19 13 13
19 14 3
19 15 11
19 16 9
19 17 9
19 18 1
